# Objective value = 3.6874211417061093e+02
x[0,1,0,9] 0
x[0,1,0,5] 0
x[0,1,0,7] 0
x[0,1,0,8] 0
x[0,1,0,2] 0
x[0,1,0,10] 1
x[0,1,0,3] 0
x[0,1,1,9] 0
x[0,1,1,4] 0
x[0,1,1,0] 0
x[0,1,1,8] 0
x[0,1,1,1] 0
x[0,1,2,10] 0
x[0,1,2,7] 0
x[0,1,2,0] 0
x[0,1,2,3] 0
x[0,1,2,6] 0
x[0,1,3,1] 1
x[0,1,3,5] 1
x[0,1,3,8] 1
x[0,1,3,2] 1
x[0,1,3,10] 1
x[0,1,3,0] 0
x[0,1,4,9] 0
x[0,1,4,8] 0
x[0,1,4,3] 0
x[0,1,4,1] 0
x[0,1,4,6] 0
x[0,2,0,9] 1
x[0,2,0,5] 1
x[0,2,0,7] 1
x[0,2,0,8] 1
x[0,2,0,2] 1
x[0,2,0,10] 0
x[0,2,0,3] 1
x[0,2,1,9] 1
x[0,2,1,4] 1
x[0,2,1,0] 0
x[0,2,1,8] 0
x[0,2,1,1] 1
x[0,2,2,10] 0
x[0,2,2,7] 0
x[0,2,2,0] 0
x[0,2,2,3] 0
x[0,2,2,6] 0
x[0,2,3,1] 0
x[0,2,3,5] 0
x[0,2,3,8] 0
x[0,2,3,2] 0
x[0,2,3,10] 0
x[0,2,3,0] 0
x[0,2,4,9] 0
x[0,2,4,8] 0
x[0,2,4,3] 0
x[0,2,4,1] 0
x[0,2,4,6] 0
x[1,0,0,9] 0
x[1,0,0,5] 0
x[1,0,0,7] 0
x[1,0,0,8] 0
x[1,0,0,2] 0
x[1,0,0,10] 0
x[1,0,0,3] 0
x[1,0,1,9] 0
x[1,0,1,4] 0
x[1,0,1,0] 1
x[1,0,1,8] 0
x[1,0,1,1] 0
x[1,0,2,10] 0
x[1,0,2,7] 0
x[1,0,2,0] 0
x[1,0,2,3] 0
x[1,0,2,6] 0
x[1,0,3,1] 0
x[1,0,3,5] 1
x[1,0,3,8] 1
x[1,0,3,2] 1
x[1,0,3,10] 1
x[1,0,3,0] 0
x[1,0,4,9] 0
x[1,0,4,8] 0
x[1,0,4,3] 0
x[1,0,4,1] 0
x[1,0,4,6] 0
x[1,10,0,9] 0
x[1,10,0,5] 0
x[1,10,0,7] 0
x[1,10,0,8] 0
x[1,10,0,2] 0
x[1,10,0,10] 1
x[1,10,0,3] 0
x[1,10,1,9] 0
x[1,10,1,4] 0
x[1,10,1,0] 0
x[1,10,1,8] 0
x[1,10,1,1] 0
x[1,10,2,10] 0
x[1,10,2,7] 0
x[1,10,2,0] 0
x[1,10,2,3] 0
x[1,10,2,6] 0
x[1,10,3,1] 0
x[1,10,3,5] 0
x[1,10,3,8] 0
x[1,10,3,2] 0
x[1,10,3,10] 0
x[1,10,3,0] 0
x[1,10,4,9] 0
x[1,10,4,8] 0
x[1,10,4,3] 0
x[1,10,4,1] 0
x[1,10,4,6] 0
x[2,0,0,9] 0
x[2,0,0,5] 0
x[2,0,0,7] 0
x[2,0,0,8] 0
x[2,0,0,2] 0
x[2,0,0,10] 0
x[2,0,0,3] 0
x[2,0,1,9] 1
x[2,0,1,4] 1
x[2,0,1,0] 0
x[2,0,1,8] 0
x[2,0,1,1] 1
x[2,0,2,10] 0
x[2,0,2,7] 0
x[2,0,2,0] 1
x[2,0,2,3] 0
x[2,0,2,6] 0
x[2,0,3,1] 1
x[2,0,3,5] 0
x[2,0,3,8] 0
x[2,0,3,2] 0
x[2,0,3,10] 0
x[2,0,3,0] 1
x[2,0,4,9] 0
x[2,0,4,8] 0
x[2,0,4,3] 0
x[2,0,4,1] 0
x[2,0,4,6] 0
x[2,9,0,9] 1
x[2,9,0,5] 1
x[2,9,0,7] 1
x[2,9,0,8] 1
x[2,9,0,2] 0
x[2,9,0,10] 0
x[2,9,0,3] 1
x[2,9,1,9] 0
x[2,9,1,4] 0
x[2,9,1,0] 0
x[2,9,1,8] 0
x[2,9,1,1] 0
x[2,9,2,10] 0
x[2,9,2,7] 0
x[2,9,2,0] 0
x[2,9,2,3] 0
x[2,9,2,6] 0
x[2,9,3,1] 0
x[2,9,3,5] 1
x[2,9,3,8] 1
x[2,9,3,2] 0
x[2,9,3,10] 0
x[2,9,3,0] 0
x[2,9,4,9] 0
x[2,9,4,8] 1
x[2,9,4,3] 0
x[2,9,4,1] 0
x[2,9,4,6] 1
x[3,4,0,9] 0
x[3,4,0,5] 0
x[3,4,0,7] 0
x[3,4,0,8] 0
x[3,4,0,2] 0
x[3,4,0,10] 0
x[3,4,0,3] 0
x[3,4,1,9] 0
x[3,4,1,4] 0
x[3,4,1,0] 1
x[3,4,1,8] 1
x[3,4,1,1] 0
x[3,4,2,10] 0
x[3,4,2,7] 0
x[3,4,2,0] 0
x[3,4,2,3] 0
x[3,4,2,6] 0
x[3,4,3,1] 0
x[3,4,3,5] 0
x[3,4,3,8] 0
x[3,4,3,2] 0
x[3,4,3,10] 0
x[3,4,3,0] 0
x[3,4,4,9] 0
x[3,4,4,8] 0
x[3,4,4,3] 0
x[3,4,4,1] 0
x[3,4,4,6] 0
x[3,6,0,9] 0
x[3,6,0,5] 0
x[3,6,0,7] 0
x[3,6,0,8] 0
x[3,6,0,2] 0
x[3,6,0,10] 0
x[3,6,0,3] 0
x[3,6,1,9] 0
x[3,6,1,4] 0
x[3,6,1,0] 0
x[3,6,1,8] 0
x[3,6,1,1] 0
x[3,6,2,10] 0
x[3,6,2,7] 0
x[3,6,2,0] 0
x[3,6,2,3] 0
x[3,6,2,6] 1
x[3,6,3,1] 0
x[3,6,3,5] 0
x[3,6,3,8] 0
x[3,6,3,2] 0
x[3,6,3,10] 0
x[3,6,3,0] 0
x[3,6,4,9] 1
x[3,6,4,8] 0
x[3,6,4,3] 0
x[3,6,4,1] 1
x[3,6,4,6] 0
x[4,3,0,9] 0
x[4,3,0,5] 0
x[4,3,0,7] 0
x[4,3,0,8] 0
x[4,3,0,2] 0
x[4,3,0,10] 0
x[4,3,0,3] 1
x[4,3,1,9] 0
x[4,3,1,4] 0
x[4,3,1,0] 0
x[4,3,1,8] 0
x[4,3,1,1] 0
x[4,3,2,10] 0
x[4,3,2,7] 0
x[4,3,2,0] 0
x[4,3,2,3] 1
x[4,3,2,6] 1
x[4,3,3,1] 0
x[4,3,3,5] 0
x[4,3,3,8] 0
x[4,3,3,2] 0
x[4,3,3,10] 0
x[4,3,3,0] 0
x[4,3,4,9] 1
x[4,3,4,8] 0
x[4,3,4,3] 1
x[4,3,4,1] 1
x[4,3,4,6] 0
x[4,5,0,9] 0
x[4,5,0,5] 0
x[4,5,0,7] 0
x[4,5,0,8] 0
x[4,5,0,2] 0
x[4,5,0,10] 0
x[4,5,0,3] 0
x[4,5,1,9] 0
x[4,5,1,4] 0
x[4,5,1,0] 0
x[4,5,1,8] 0
x[4,5,1,1] 0
x[4,5,2,10] 0
x[4,5,2,7] 0
x[4,5,2,0] 0
x[4,5,2,3] 0
x[4,5,2,6] 0
x[4,5,3,1] 0
x[4,5,3,5] 1
x[4,5,3,8] 0
x[4,5,3,2] 0
x[4,5,3,10] 0
x[4,5,3,0] 0
x[4,5,4,9] 0
x[4,5,4,8] 0
x[4,5,4,3] 0
x[4,5,4,1] 0
x[4,5,4,6] 0
x[4,6,0,9] 0
x[4,6,0,5] 0
x[4,6,0,7] 0
x[4,6,0,8] 0
x[4,6,0,2] 0
x[4,6,0,10] 0
x[4,6,0,3] 0
x[4,6,1,9] 1
x[4,6,1,4] 0
x[4,6,1,0] 1
x[4,6,1,8] 1
x[4,6,1,1] 1
x[4,6,2,10] 0
x[4,6,2,7] 0
x[4,6,2,0] 0
x[4,6,2,3] 0
x[4,6,2,6] 0
x[4,6,3,1] 0
x[4,6,3,5] 0
x[4,6,3,8] 0
x[4,6,3,2] 0
x[4,6,3,10] 0
x[4,6,3,0] 0
x[4,6,4,9] 0
x[4,6,4,8] 0
x[4,6,4,3] 0
x[4,6,4,1] 0
x[4,6,4,6] 0
x[5,4,0,9] 0
x[5,4,0,5] 0
x[5,4,0,7] 0
x[5,4,0,8] 0
x[5,4,0,2] 0
x[5,4,0,10] 0
x[5,4,0,3] 1
x[5,4,1,9] 0
x[5,4,1,4] 0
x[5,4,1,0] 0
x[5,4,1,8] 0
x[5,4,1,1] 0
x[5,4,2,10] 0
x[5,4,2,7] 0
x[5,4,2,0] 0
x[5,4,2,3] 1
x[5,4,2,6] 1
x[5,4,3,1] 0
x[5,4,3,5] 0
x[5,4,3,8] 0
x[5,4,3,2] 0
x[5,4,3,10] 0
x[5,4,3,0] 0
x[5,4,4,9] 0
x[5,4,4,8] 0
x[5,4,4,3] 0
x[5,4,4,1] 0
x[5,4,4,6] 0
x[5,8,0,9] 0
x[5,8,0,5] 0
x[5,8,0,7] 0
x[5,8,0,8] 0
x[5,8,0,2] 1
x[5,8,0,10] 0
x[5,8,0,3] 0
x[5,8,1,9] 0
x[5,8,1,4] 0
x[5,8,1,0] 0
x[5,8,1,8] 0
x[5,8,1,1] 0
x[5,8,2,10] 1
x[5,8,2,7] 1
x[5,8,2,0] 1
x[5,8,2,3] 0
x[5,8,2,6] 0
x[5,8,3,1] 0
x[5,8,3,5] 0
x[5,8,3,8] 0
x[5,8,3,2] 0
x[5,8,3,10] 0
x[5,8,3,0] 0
x[5,8,4,9] 0
x[5,8,4,8] 0
x[5,8,4,3] 0
x[5,8,4,1] 0
x[5,8,4,6] 0
x[6,3,0,9] 0
x[6,3,0,5] 0
x[6,3,0,7] 0
x[6,3,0,8] 0
x[6,3,0,2] 0
x[6,3,0,10] 0
x[6,3,0,3] 0
x[6,3,1,9] 0
x[6,3,1,4] 0
x[6,3,1,0] 1
x[6,3,1,8] 1
x[6,3,1,1] 0
x[6,3,2,10] 0
x[6,3,2,7] 0
x[6,3,2,0] 0
x[6,3,2,3] 0
x[6,3,2,6] 0
x[6,3,3,1] 0
x[6,3,3,5] 0
x[6,3,3,8] 0
x[6,3,3,2] 0
x[6,3,3,10] 0
x[6,3,3,0] 0
x[6,3,4,9] 0
x[6,3,4,8] 0
x[6,3,4,3] 0
x[6,3,4,1] 0
x[6,3,4,6] 0
x[6,4,0,9] 0
x[6,4,0,5] 0
x[6,4,0,7] 0
x[6,4,0,8] 0
x[6,4,0,2] 0
x[6,4,0,10] 0
x[6,4,0,3] 0
x[6,4,1,9] 1
x[6,4,1,4] 1
x[6,4,1,0] 0
x[6,4,1,8] 0
x[6,4,1,1] 1
x[6,4,2,10] 0
x[6,4,2,7] 0
x[6,4,2,0] 0
x[6,4,2,3] 0
x[6,4,2,6] 0
x[6,4,3,1] 0
x[6,4,3,5] 1
x[6,4,3,8] 0
x[6,4,3,2] 0
x[6,4,3,10] 0
x[6,4,3,0] 0
x[6,4,4,9] 1
x[6,4,4,8] 0
x[6,4,4,3] 1
x[6,4,4,1] 1
x[6,4,4,6] 0
x[6,7,0,9] 1
x[6,7,0,5] 0
x[6,7,0,7] 0
x[6,7,0,8] 1
x[6,7,0,2] 1
x[6,7,0,10] 1
x[6,7,0,3] 0
x[6,7,1,9] 0
x[6,7,1,4] 0
x[6,7,1,0] 0
x[6,7,1,8] 0
x[6,7,1,1] 0
x[6,7,2,10] 0
x[6,7,2,7] 0
x[6,7,2,0] 0
x[6,7,2,3] 0
x[6,7,2,6] 0
x[6,7,3,1] 1
x[6,7,3,5] 0
x[6,7,3,8] 1
x[6,7,3,2] 1
x[6,7,3,10] 1
x[6,7,3,0] 1
x[6,7,4,9] 0
x[6,7,4,8] 0
x[6,7,4,3] 0
x[6,7,4,1] 0
x[6,7,4,6] 0
x[7,6,0,9] 1
x[7,6,0,5] 0
x[7,6,0,7] 0
x[7,6,0,8] 1
x[7,6,0,2] 1
x[7,6,0,10] 1
x[7,6,0,3] 0
x[7,6,1,9] 0
x[7,6,1,4] 1
x[7,6,1,0] 0
x[7,6,1,8] 0
x[7,6,1,1] 0
x[7,6,2,10] 0
x[7,6,2,7] 0
x[7,6,2,0] 0
x[7,6,2,3] 0
x[7,6,2,6] 0
x[7,6,3,1] 0
x[7,6,3,5] 0
x[7,6,3,8] 0
x[7,6,3,2] 0
x[7,6,3,10] 0
x[7,6,3,0] 0
x[7,6,4,9] 0
x[7,6,4,8] 0
x[7,6,4,3] 1
x[7,6,4,1] 0
x[7,6,4,6] 1
x[7,8,0,9] 0
x[7,8,0,5] 0
x[7,8,0,7] 0
x[7,8,0,8] 0
x[7,8,0,2] 0
x[7,8,0,10] 0
x[7,8,0,3] 0
x[7,8,1,9] 0
x[7,8,1,4] 0
x[7,8,1,0] 0
x[7,8,1,8] 1
x[7,8,1,1] 0
x[7,8,2,10] 0
x[7,8,2,7] 0
x[7,8,2,0] 0
x[7,8,2,3] 0
x[7,8,2,6] 0
x[7,8,3,1] 1
x[7,8,3,5] 0
x[7,8,3,8] 1
x[7,8,3,2] 1
x[7,8,3,10] 1
x[7,8,3,0] 1
x[7,8,4,9] 0
x[7,8,4,8] 1
x[7,8,4,3] 0
x[7,8,4,1] 0
x[7,8,4,6] 0
x[7,10,0,9] 0
x[7,10,0,5] 0
x[7,10,0,7] 0
x[7,10,0,8] 0
x[7,10,0,2] 0
x[7,10,0,10] 0
x[7,10,0,3] 0
x[7,10,1,9] 0
x[7,10,1,4] 0
x[7,10,1,0] 0
x[7,10,1,8] 0
x[7,10,1,1] 0
x[7,10,2,10] 0
x[7,10,2,7] 0
x[7,10,2,0] 0
x[7,10,2,3] 0
x[7,10,2,6] 0
x[7,10,3,1] 0
x[7,10,3,5] 0
x[7,10,3,8] 0
x[7,10,3,2] 0
x[7,10,3,10] 0
x[7,10,3,0] 0
x[7,10,4,9] 0
x[7,10,4,8] 0
x[7,10,4,3] 0
x[7,10,4,1] 0
x[7,10,4,6] 0
x[8,5,0,9] 0
x[8,5,0,5] 1
x[8,5,0,7] 0
x[8,5,0,8] 0
x[8,5,0,2] 1
x[8,5,0,10] 0
x[8,5,0,3] 1
x[8,5,1,9] 0
x[8,5,1,4] 0
x[8,5,1,0] 0
x[8,5,1,8] 0
x[8,5,1,1] 0
x[8,5,2,10] 0
x[8,5,2,7] 0
x[8,5,2,0] 0
x[8,5,2,3] 0
x[8,5,2,6] 0
x[8,5,3,1] 0
x[8,5,3,5] 0
x[8,5,3,8] 0
x[8,5,3,2] 0
x[8,5,3,10] 0
x[8,5,3,0] 0
x[8,5,4,9] 0
x[8,5,4,8] 0
x[8,5,4,3] 0
x[8,5,4,1] 0
x[8,5,4,6] 0
x[8,7,0,9] 0
x[8,7,0,5] 0
x[8,7,0,7] 1
x[8,7,0,8] 0
x[8,7,0,2] 0
x[8,7,0,10] 0
x[8,7,0,3] 0
x[8,7,1,9] 0
x[8,7,1,4] 0
x[8,7,1,0] 0
x[8,7,1,8] 0
x[8,7,1,1] 0
x[8,7,2,10] 0
x[8,7,2,7] 1
x[8,7,2,0] 0
x[8,7,2,3] 0
x[8,7,2,6] 0
x[8,7,3,1] 0
x[8,7,3,5] 0
x[8,7,3,8] 0
x[8,7,3,2] 0
x[8,7,3,10] 0
x[8,7,3,0] 0
x[8,7,4,9] 0
x[8,7,4,8] 0
x[8,7,4,3] 0
x[8,7,4,1] 0
x[8,7,4,6] 0
x[8,9,0,9] 0
x[8,9,0,5] 0
x[8,9,0,7] 0
x[8,9,0,8] 0
x[8,9,0,2] 0
x[8,9,0,10] 0
x[8,9,0,3] 0
x[8,9,1,9] 0
x[8,9,1,4] 0
x[8,9,1,0] 0
x[8,9,1,8] 0
x[8,9,1,1] 0
x[8,9,2,10] 1
x[8,9,2,7] 0
x[8,9,2,0] 1
x[8,9,2,3] 0
x[8,9,2,6] 0
x[8,9,3,1] 1
x[8,9,3,5] 0
x[8,9,3,8] 0
x[8,9,3,2] 1
x[8,9,3,10] 1
x[8,9,3,0] 1
x[8,9,4,9] 0
x[8,9,4,8] 0
x[8,9,4,3] 0
x[8,9,4,1] 0
x[8,9,4,6] 0
x[9,2,0,9] 0
x[9,2,0,5] 0
x[9,2,0,7] 0
x[9,2,0,8] 0
x[9,2,0,2] 0
x[9,2,0,10] 0
x[9,2,0,3] 0
x[9,2,1,9] 0
x[9,2,1,4] 0
x[9,2,1,0] 0
x[9,2,1,8] 0
x[9,2,1,1] 0
x[9,2,2,10] 0
x[9,2,2,7] 0
x[9,2,2,0] 1
x[9,2,2,3] 0
x[9,2,2,6] 0
x[9,2,3,1] 1
x[9,2,3,5] 1
x[9,2,3,8] 1
x[9,2,3,2] 1
x[9,2,3,10] 0
x[9,2,3,0] 1
x[9,2,4,9] 0
x[9,2,4,8] 1
x[9,2,4,3] 0
x[9,2,4,1] 0
x[9,2,4,6] 1
x[9,8,0,9] 0
x[9,8,0,5] 1
x[9,8,0,7] 1
x[9,8,0,8] 1
x[9,8,0,2] 0
x[9,8,0,10] 0
x[9,8,0,3] 1
x[9,8,1,9] 0
x[9,8,1,4] 0
x[9,8,1,0] 0
x[9,8,1,8] 0
x[9,8,1,1] 0
x[9,8,2,10] 0
x[9,8,2,7] 0
x[9,8,2,0] 0
x[9,8,2,3] 0
x[9,8,2,6] 0
x[9,8,3,1] 0
x[9,8,3,5] 0
x[9,8,3,8] 0
x[9,8,3,2] 0
x[9,8,3,10] 0
x[9,8,3,0] 0
x[9,8,4,9] 0
x[9,8,4,8] 0
x[9,8,4,3] 0
x[9,8,4,1] 0
x[9,8,4,6] 0
x[9,10,0,9] 0
x[9,10,0,5] 0
x[9,10,0,7] 0
x[9,10,0,8] 0
x[9,10,0,2] 0
x[9,10,0,10] 0
x[9,10,0,3] 0
x[9,10,1,9] 0
x[9,10,1,4] 0
x[9,10,1,0] 0
x[9,10,1,8] 0
x[9,10,1,1] 0
x[9,10,2,10] 1
x[9,10,2,7] 0
x[9,10,2,0] 0
x[9,10,2,3] 0
x[9,10,2,6] 0
x[9,10,3,1] 0
x[9,10,3,5] 0
x[9,10,3,8] 0
x[9,10,3,2] 0
x[9,10,3,10] 1
x[9,10,3,0] 0
x[9,10,4,9] 0
x[9,10,4,8] 0
x[9,10,4,3] 0
x[9,10,4,1] 0
x[9,10,4,6] 0
x[10,1,0,9] 0
x[10,1,0,5] 0
x[10,1,0,7] 0
x[10,1,0,8] 0
x[10,1,0,2] 0
x[10,1,0,10] 0
x[10,1,0,3] 0
x[10,1,1,9] 0
x[10,1,1,4] 0
x[10,1,1,0] 1
x[10,1,1,8] 0
x[10,1,1,1] 1
x[10,1,2,10] 0
x[10,1,2,7] 0
x[10,1,2,0] 0
x[10,1,2,3] 0
x[10,1,2,6] 0
x[10,1,3,1] 0
x[10,1,3,5] 0
x[10,1,3,8] 0
x[10,1,3,2] 0
x[10,1,3,10] 0
x[10,1,3,0] 0
x[10,1,4,9] 0
x[10,1,4,8] 0
x[10,1,4,3] 0
x[10,1,4,1] 1
x[10,1,4,6] 0
x[10,7,0,9] 0
x[10,7,0,5] 0
x[10,7,0,7] 0
x[10,7,0,8] 0
x[10,7,0,2] 0
x[10,7,0,10] 0
x[10,7,0,3] 0
x[10,7,1,9] 0
x[10,7,1,4] 1
x[10,7,1,0] 0
x[10,7,1,8] 1
x[10,7,1,1] 0
x[10,7,2,10] 0
x[10,7,2,7] 0
x[10,7,2,0] 0
x[10,7,2,3] 0
x[10,7,2,6] 0
x[10,7,3,1] 0
x[10,7,3,5] 0
x[10,7,3,8] 0
x[10,7,3,2] 0
x[10,7,3,10] 0
x[10,7,3,0] 0
x[10,7,4,9] 0
x[10,7,4,8] 1
x[10,7,4,3] 1
x[10,7,4,1] 0
x[10,7,4,6] 1
x[10,9,0,9] 0
x[10,9,0,5] 0
x[10,9,0,7] 0
x[10,9,0,8] 0
x[10,9,0,2] 0
x[10,9,0,10] 0
x[10,9,0,3] 0
x[10,9,1,9] 1
x[10,9,1,4] 0
x[10,9,1,0] 0
x[10,9,1,8] 0
x[10,9,1,1] 0
x[10,9,2,10] 0
x[10,9,2,7] 0
x[10,9,2,0] 0
x[10,9,2,3] 0
x[10,9,2,6] 0
x[10,9,3,1] 0
x[10,9,3,5] 0
x[10,9,3,8] 0
x[10,9,3,2] 0
x[10,9,3,10] 0
x[10,9,3,0] 0
x[10,9,4,9] 1
x[10,9,4,8] 0
x[10,9,4,3] 0
x[10,9,4,1] 0
x[10,9,4,6] 0
y[0,1,0] 1
y[0,1,1] 0
y[0,1,2] 0
y[0,1,3] 1
y[0,1,4] 0
y[0,2,0] 1
y[0,2,1] 1
y[0,2,2] 0
y[0,2,3] 0
y[0,2,4] 0
y[1,0,0] 0
y[1,0,1] 1
y[1,0,2] 0
y[1,0,3] 1
y[1,0,4] 0
y[1,10,0] 1
y[1,10,1] 0
y[1,10,2] 0
y[1,10,3] 0
y[1,10,4] 0
y[2,0,0] 0
y[2,0,1] 1
y[2,0,2] 1
y[2,0,3] 1
y[2,0,4] 0
y[2,9,0] 1
y[2,9,1] 0
y[2,9,2] 0
y[2,9,3] 1
y[2,9,4] 1
y[3,4,0] 0
y[3,4,1] 1
y[3,4,2] 0
y[3,4,3] 0
y[3,4,4] 0
y[3,6,0] 0
y[3,6,1] 0
y[3,6,2] 1
y[3,6,3] 0
y[3,6,4] 1
y[4,3,0] 1
y[4,3,1] 0
y[4,3,2] 1
y[4,3,3] 0
y[4,3,4] 1
y[4,5,0] 0
y[4,5,1] 0
y[4,5,2] 0
y[4,5,3] 1
y[4,5,4] 0
y[4,6,0] 0
y[4,6,1] 1
y[4,6,2] 0
y[4,6,3] 0
y[4,6,4] 0
y[5,4,0] 1
y[5,4,1] 0
y[5,4,2] 1
y[5,4,3] 0
y[5,4,4] 0
y[5,8,0] 1
y[5,8,1] 0
y[5,8,2] 1
y[5,8,3] 0
y[5,8,4] 0
y[6,3,0] 0
y[6,3,1] 1
y[6,3,2] 0
y[6,3,3] 0
y[6,3,4] 0
y[6,4,0] 0
y[6,4,1] 1
y[6,4,2] 0
y[6,4,3] 1
y[6,4,4] 1
y[6,7,0] 1
y[6,7,1] 0
y[6,7,2] 0
y[6,7,3] 1
y[6,7,4] 0
y[7,6,0] 1
y[7,6,1] 1
y[7,6,2] 0
y[7,6,3] 0
y[7,6,4] 1
y[7,8,0] 0
y[7,8,1] 1
y[7,8,2] 0
y[7,8,3] 1
y[7,8,4] 1
y[7,10,0] 0
y[7,10,1] 0
y[7,10,2] 0
y[7,10,3] 0
y[7,10,4] 0
y[8,5,0] 1
y[8,5,1] 0
y[8,5,2] 0
y[8,5,3] 0
y[8,5,4] 0
y[8,7,0] 1
y[8,7,1] 0
y[8,7,2] 1
y[8,7,3] 0
y[8,7,4] 0
y[8,9,0] 0
y[8,9,1] 0
y[8,9,2] 1
y[8,9,3] 1
y[8,9,4] 0
y[9,2,0] 0
y[9,2,1] 0
y[9,2,2] 1
y[9,2,3] 1
y[9,2,4] 1
y[9,8,0] 1
y[9,8,1] 0
y[9,8,2] 0
y[9,8,3] 0
y[9,8,4] 0
y[9,10,0] 0
y[9,10,1] 0
y[9,10,2] 1
y[9,10,3] 1
y[9,10,4] 0
y[10,1,0] 0
y[10,1,1] 1
y[10,1,2] 0
y[10,1,3] 0
y[10,1,4] 1
y[10,7,0] 0
y[10,7,1] 1
y[10,7,2] 0
y[10,7,3] 0
y[10,7,4] 1
y[10,9,0] 0
y[10,9,1] 1
y[10,9,2] 0
y[10,9,3] 0
y[10,9,4] 1
w[0,1] 1
w[0,2] 3
w[1,0] 1
w[1,10] 4
w[2,0] 1
w[2,9] 1
w[3,4] 1
w[3,6] 4
w[4,3] 1
w[4,5] 9
w[4,6] 18
w[5,4] 1
w[5,8] 1
w[6,3] 3
w[6,4] 1
w[6,7] 1
w[7,6] 1
w[7,8] 5
w[7,10] 98
w[8,5] 5
w[8,7] 5
w[8,9] 1
w[9,2] 2
w[9,8] 2
w[9,10] 7
w[10,1] 13
w[10,7] 9
w[10,9] 13
b[0,0] 1
b[0,1] 0
b[0,2] 0
b[0,3] 0
b[0,4] 0
b[1,0] 0
b[1,1] 0
b[1,2] 0
b[1,3] 0
b[1,4] 0
b[2,0] 0
b[2,1] 0
b[2,2] 0
b[2,3] 0
b[2,4] 0
b[3,0] 0
b[3,1] 0
b[3,2] 0
b[3,3] 0
b[3,4] 0
b[4,0] 0
b[4,1] 0
b[4,2] 0
b[4,3] 0
b[4,4] 0
b[5,0] 0
b[5,1] 0
b[5,2] 1
b[5,3] 0
b[5,4] 0
b[6,0] 0
b[6,1] 0
b[6,2] 0
b[6,3] 1
b[6,4] 0
b[7,0] 0
b[7,1] 0
b[7,2] 0
b[7,3] 0
b[7,4] 0
b[8,0] 0
b[8,1] 0
b[8,2] 0
b[8,3] 0
b[8,4] 0
b[9,0] 0
b[9,1] 0
b[9,2] 0
b[9,3] 0
b[9,4] 0
b[10,0] 0
b[10,1] 1
b[10,2] 0
b[10,3] 0
b[10,4] 1
c[0,1] 2.7748588169457662e+00
c[0,2] 4.9740111636886013e+00
c[1,0] 1.4368904728690950e+00
c[1,10] 6.7179363314646423e-01
c[2,0] 9.7989775628893881e+01
c[2,9] 9.9560809859732160e+00
c[3,4] 1.3061043365087244e+00
c[3,6] 1.0439527642766961e+00
c[4,3] 5.7758566329792984e+00
c[4,5] 2.9209101733385978e-01
c[4,6] 1.7867150234078508e+00
c[5,4] 3.2776083709240424e+00
c[5,8] 2.5190159504643930e+01
c[6,3] 6.2478230609394814e-01
c[6,4] 1.1537329599631107e+01
c[6,7] 7.5807023189076176e+01
c[7,6] 5.1712586264638958e+00
c[7,8] 3.3007452643927309e+00
c[7,10] 0
c[8,5] 0.547594114847243
c[8,7] 8.5413853005402487e+00
c[8,9] 9.0913657430809280e+00
c[9,2] 4.1370060124080226e+00
c[9,8] 1.1847913920009887e+00
c[9,10] 3.0026771615080747e+00
c[10,1] 6.7624859904019559e+00
c[10,7] 79.8806715870187
c[10,9] 2.6770995315555410e+00
